p cnf 710 1922
-81 -82 86 0 
-81 82 109 0 
-82 83 0 
-82 79 0 
-83 84 0 
-83 77 0 
-84 85 0 
-84 75 0 
-85 74 0 
-86 87 0 
-86 107 0 
-87 88 0 
-87 105 0 
-88 89 0 
-88 103 0 
-89 90 0 
-89 101 0 
-90 91 0 
-90 99 0 
-91 92 0 
-91 97 0 
-92 93 0 
-92 95 0 
-93 -94 51 0 
-93 -51 94 0 
-95 -96 53 0 
-95 -53 96 0 
-97 -98 55 0 
-97 -55 98 0 
-99 -100 57 0 
-99 -57 100 0 
-101 -102 59 0 
-101 -59 102 0 
-103 -104 61 0 
-103 -61 104 0 
-105 -106 63 0 
-105 -63 106 0 
-107 -108 65 0 
-107 -65 108 0 
-109 -110 86 0 
-109 110 114 0 
-110 111 0 
-110 79 0 
-1 2 0 
-2 1 0 
-111 112 0 
-111 77 0 
-112 113 0 
-112 73 0 
-113 76 0 
-114 -115 86 0 
-114 115 118 0 
-115 116 0 
-115 79 0 
-116 117 0 
-116 77 0 
-117 85 0 
-117 113 0 
-118 -119 122 0 
-118 119 86 0 
-119 120 0 
-119 79 0 
-120 121 0 
-120 72 0 
-121 78 0 
-122 -123 157 0 
-122 123 86 0 
-123 124 0 
-123 147 0 
-124 125 0 
-124 137 0 
-125 126 0 
-125 131 0 
-126 -127 0 
-127 128 0 
-128 -129 -130 0 
-128 129 130 0 
-2 3 0 
-131 -132 0 
-132 -133 -136 0 
-132 133 136 0 
-133 -134 -135 0 
-133 134 135 0 
-136 129 0 
-136 130 0 
-137 -138 0 
-138 -139 -142 0 
-138 139 142 0 
-139 -140 -141 0 
-139 140 141 0 
-3 -4 -5 0 
-3 4 5 0 
-142 143 146 0 
-143 144 145 0 
-144 134 0 
-144 135 0 
-145 135 0 
-145 136 0 
-146 134 0 
-146 136 0 
-147 -148 0 
-148 -149 -152 0 
-148 149 152 0 
-149 -150 -151 0 
-149 150 151 0 
-152 153 156 0 
-153 154 155 0 
-154 140 0 
-154 141 0 
-155 141 0 
-155 142 0 
-156 140 0 
-156 142 0 
-157 158 0 
-157 178 0 
-158 159 0 
-158 176 0 
-159 160 0 
-159 174 0 
-160 161 0 
-160 172 0 
-161 162 0 
-161 170 0 
-162 163 0 
-162 168 0 
-163 164 0 
-163 166 0 
-164 -165 51 0 
-164 -51 165 0 
-166 -167 53 0 
-166 -53 167 0 
-168 -169 55 0 
-168 -55 169 0 
-170 -171 57 0 
-170 -57 171 0 
-172 -173 59 0 
-172 -59 173 0 
-174 -175 61 0 
-174 -61 175 0 
-176 -177 63 0 
-176 -63 177 0 
-178 -179 65 0 
-178 -65 179 0 
-32 180 0 
32 272 0 
-6 7 0 
-7 6 0 
-180 -42 181 0 
-180 42 192 0 
-181 182 0 
-181 190 0 
-182 183 0 
-182 188 0 
-183 184 0 
-183 186 0 
-184 -185 0 
-186 -187 0 
-188 -189 0 
-190 -191 0 
-192 -67 193 0 
-192 67 272 0 
-193 -70 194 0 
-193 70 199 0 
-194 -123 195 0 
-194 123 181 0 
-195 190 0 
-195 196 0 
-196 188 0 
-196 197 0 
-197 186 0 
-197 198 0 
-198 185 0 
-199 -82 200 0 
-199 82 205 0 
-7 -8 -11 0 
-7 8 11 0 
-200 -123 201 0 
-200 123 181 0 
-201 190 0 
-201 202 0 
-202 188 0 
-202 203 0 
-203 184 0 
-203 204 0 
-204 187 0 
-205 -110 206 0 
-205 110 210 0 
-206 -123 207 0 
-206 123 181 0 
-207 190 0 
-207 208 0 
-208 188 0 
-208 209 0 
-209 198 0 
-209 204 0 
-8 -9 -10 0 
-8 9 10 0 
-210 -115 211 0 
-210 115 215 0 
-211 -123 212 0 
-211 123 181 0 
-212 190 0 
-212 213 0 
-213 183 0 
-213 214 0 
-214 189 0 
-215 -119 216 0 
-215 119 219 0 
-216 -123 217 0 
-216 123 181 0 
-217 190 0 
-217 218 0 
-218 197 0 
-218 214 0 
-219 -220 222 0 
-219 220 242 0 
-220 221 0 
-220 79 0 
-221 84 0 
-221 121 0 
-222 -223 238 0 
-222 223 240 0 
-223 224 0 
-223 237 0 
-224 225 0 
-224 236 0 
-225 226 0 
-225 235 0 
-226 227 0 
-226 234 0 
-227 228 0 
-227 233 0 
-228 229 0 
-228 232 0 
-229 230 0 
-229 231 0 
-230 -94 0 
-231 -96 0 
-232 -98 0 
-233 -100 0 
-234 -102 0 
-235 -104 0 
-236 -106 0 
-237 -108 0 
-238 190 0 
-238 239 0 
-239 203 0 
-239 214 0 
-11 4 0 
-11 5 0 
-240 208 0 
-240 241 0 
-241 191 0 
-242 -243 245 0 
-242 243 253 0 
-243 244 0 
-243 79 0 
-244 112 0 
-244 121 0 
-245 -246 181 0 
-245 246 251 0 
-246 247 0 
-247 248 0 
-248 249 0 
-249 -250 0 
-12 13 0 
-13 12 0 
-251 190 0 
-251 252 0 
-252 209 0 
-252 214 0 
-253 -70 254 0 
-253 70 255 0 
-254 196 0 
-254 241 0 
-255 -256 258 0 
-255 256 259 0 
-256 257 0 
-256 79 0 
-257 117 0 
-257 121 0 
-258 202 0 
-258 241 0 
-259 -260 258 0 
-259 260 262 0 
-260 83 0 
-260 261 0 
-261 80 0 
-262 -263 240 0 
-262 263 264 0 
-263 111 0 
-263 261 0 
-264 -265 266 0 
-264 265 181 0 
-265 116 0 
-265 261 0 
-266 -267 181 0 
-266 267 272 0 
-267 147 0 
-267 268 0 
-268 137 0 
-268 269 0 
-13 -14 -17 0 
-13 14 17 0 
-269 270 0 
-269 271 0 
-270 127 0 
-271 132 0 
-272 273 0 
-272 278 0 
-273 274 0 
-273 277 0 
-274 275 0 
-274 276 0 
-275 -185 74 0 
-275 -74 185 0 
-276 -187 76 0 
-276 -76 187 0 
-277 -189 78 0 
-277 -78 189 0 
-278 -191 80 0 
-278 -80 191 0 
-14 -15 -16 0 
-14 15 16 0 
-32 279 0 
32 306 0 
-279 -42 280 0 
-279 42 303 0 
-280 281 0 
-280 301 0 
-281 282 0 
-281 299 0 
-282 283 0 
-282 297 0 
-283 284 0 
-283 295 0 
-284 285 0 
-284 293 0 
-285 286 0 
-285 291 0 
-286 287 0 
-286 289 0 
-287 288 0 
-289 290 0 
-291 292 0 
-293 294 0 
-295 296 0 
-297 298 0 
-299 300 0 
-301 302 0 
-303 -67 304 0 
-303 67 306 0 
-304 -70 280 0 
-304 70 305 0 
-305 -82 306 0 
-305 82 329 0 
-306 307 0 
-306 327 0 
-307 308 0 
-307 325 0 
-17 18 21 0 
-308 309 0 
-308 323 0 
-309 310 0 
-309 321 0 
-310 311 0 
-310 319 0 
-311 312 0 
-311 317 0 
-312 313 0 
-312 315 0 
-313 -288 314 0 
-313 -314 288 0 
-315 -290 316 0 
-315 -316 290 0 
-317 -292 318 0 
-317 -318 292 0 
-18 19 20 0 
-319 -294 320 0 
-319 -320 294 0 
-321 -296 322 0 
-321 -322 296 0 
-323 -298 324 0 
-323 -324 298 0 
-325 -300 326 0 
-325 -326 300 0 
-327 -302 328 0 
-327 -328 302 0 
-19 9 0 
-19 10 0 
-329 -110 306 0 
-329 110 330 0 
-330 -115 306 0 
-330 115 331 0 
-331 -119 332 0 
-331 119 306 0 
-332 -123 333 0 
-332 123 306 0 
-333 334 0 
-333 354 0 
-334 335 0 
-334 352 0 
-335 336 0 
-335 350 0 
-336 337 0 
-336 348 0 
-337 338 0 
-337 346 0 
-20 10 0 
-20 11 0 
-338 339 0 
-338 344 0 
-339 340 0 
-339 342 0 
-340 -288 341 0 
-340 -341 288 0 
-342 -290 343 0 
-342 -343 290 0 
-344 -292 345 0 
-344 -345 292 0 
-346 -294 347 0 
-346 -347 294 0 
-21 9 0 
-21 11 0 
-348 -296 349 0 
-348 -349 296 0 
-350 -298 351 0 
-350 -351 298 0 
-352 -300 353 0 
-352 -353 300 0 
-354 -302 355 0 
-354 -355 302 0 
-22 23 0 
-23 22 0 
-127 356 0 
-356 127 0 
-132 357 0 
-357 132 0 
-138 358 0 
-358 138 0 
-148 359 0 
-359 148 0 
-32 360 0 
32 370 0 
-360 -42 361 0 
-360 42 366 0 
-361 362 0 
-362 363 0 
-363 364 0 
-364 -365 0 
-366 -67 367 0 
-366 67 370 0 
-367 -70 361 0 
-367 70 368 0 
-23 -24 -27 0 
-23 24 27 0 
-368 -82 361 0 
-368 82 369 0 
-369 -110 370 0 
-369 110 372 0 
-370 -365 371 0 
-370 -371 365 0 
-372 -115 370 0 
-372 115 373 0 
-373 -119 370 0 
-373 119 374 0 
-374 -220 370 0 
-374 220 375 0 
-375 -243 370 0 
-375 243 376 0 
-376 -70 377 0 
-376 70 378 0 
-377 365 0 
-24 -25 -26 0 
-24 25 26 0 
-378 -256 361 0 
-378 256 379 0 
-379 -260 361 0 
-379 260 370 0 
-380 381 0 
-381 380 0 
-32 382 0 
32 391 0 
-382 -42 383 0 
-382 42 387 0 
-383 384 0 
-384 385 0 
-385 386 0 
-386 -381 0 
-387 -67 388 0 
-387 67 391 0 
-388 -70 383 0 
-388 70 389 0 
-389 -82 383 0 
-389 82 390 0 
-390 -110 391 0 
-390 110 393 0 
-391 -381 392 0 
-391 -392 381 0 
-393 -115 391 0 
-393 115 394 0 
-394 -119 391 0 
-394 119 395 0 
-395 -220 396 0 
-395 220 391 0 
-396 -223 397 0 
-396 223 383 0 
-397 381 0 
-27 28 31 0 
-32 398 0 
32 558 0 
-398 -42 399 0 
-398 42 446 0 
-399 400 0 
-399 444 0 
-400 401 0 
-400 442 0 
-401 402 0 
-401 440 0 
-402 403 0 
-402 438 0 
-403 404 0 
-403 436 0 
-28 29 30 0 
-404 405 0 
-404 434 0 
-405 406 0 
-405 432 0 
-406 407 0 
-406 430 0 
-407 408 0 
-407 428 0 
-408 409 0 
-408 426 0 
-409 410 0 
-409 424 0 
-410 411 0 
-410 422 0 
-411 412 0 
-411 420 0 
-412 413 0 
-412 418 0 
-413 414 0 
-413 416 0 
-29 15 0 
-29 16 0 
-414 -415 0 
-416 -417 0 
-418 -419 0 
-420 -421 0 
-422 -423 0 
-30 16 0 
-30 17 0 
-424 -425 0 
-426 -427 0 
-428 -429 0 
-430 -431 0 
-432 -433 0 
-31 15 0 
-31 17 0 
-434 -435 0 
-436 -437 0 
-438 -439 0 
-440 -441 0 
-442 -443 0 
-32 41 0 
32 86 0 
-444 -445 0 
-446 -67 447 0 
-446 67 558 0 
-447 -448 399 0 
-447 448 459 0 
-448 449 0 
-448 457 0 
-449 450 0 
-449 455 0 
-450 451 0 
-450 453 0 
-451 -452 0 
-453 -454 0 
-32 33 37 0 
-455 -456 0 
-457 -458 0 
-459 -460 464 0 
-459 460 558 0 
-460 457 0 
-460 461 0 
-461 455 0 
-461 462 0 
-462 453 0 
-462 463 0 
-463 452 0 
-33 -34 0 
-464 465 0 
-464 553 0 
-465 466 0 
-465 548 0 
-466 467 0 
-466 543 0 
-467 468 0 
-467 538 0 
-468 469 0 
-468 533 0 
-469 470 0 
-469 528 0 
-470 471 0 
-470 523 0 
-471 472 0 
-471 518 0 
-472 473 0 
-472 513 0 
-473 474 0 
-473 508 0 
-34 -35 36 0 
-34 -36 35 0 
-474 475 0 
-474 503 0 
-475 476 0 
-475 498 0 
-476 477 0 
-476 493 0 
-477 478 0 
-477 488 0 
-478 479 0 
-478 483 0 
-479 -415 480 0 
-479 -480 415 0 
-480 481 0 
-481 -482 0 
-483 -417 484 0 
-483 -484 417 0 
-484 -485 -487 0 
-484 485 487 0 
-485 486 0 
-487 482 0 
-488 -419 489 0 
-488 -489 419 0 
-489 -490 -492 0 
-489 490 492 0 
-490 491 0 
-492 486 0 
-492 487 0 
-493 -421 494 0 
-493 -494 421 0 
-494 -495 -497 0 
-494 495 497 0 
-495 496 0 
-497 491 0 
-497 492 0 
-498 -423 499 0 
-498 -499 423 0 
-499 -500 -502 0 
-499 500 502 0 
-500 501 0 
-502 496 0 
-502 497 0 
-503 -425 504 0 
-503 -504 425 0 
-37 -38 0 
-504 -505 -507 0 
-504 505 507 0 
-505 506 0 
-507 501 0 
-507 502 0 
-508 -427 509 0 
-508 -509 427 0 
-509 -510 -512 0 
-509 510 512 0 
-510 511 0 
-512 506 0 
-512 507 0 
-513 -429 514 0 
-513 -514 429 0 
-38 -39 40 0 
-38 -40 39 0 
-514 -515 -517 0 
-514 515 517 0 
-515 516 0 
-517 511 0 
-517 512 0 
-518 -431 519 0 
-518 -519 431 0 
-519 -520 -522 0 
-519 520 522 0 
-520 521 0 
-522 516 0 
-522 517 0 
-523 -433 524 0 
-523 -524 433 0 
-524 -525 -527 0 
-524 525 527 0 
-525 526 0 
-527 521 0 
-527 522 0 
-528 -435 529 0 
-528 -529 435 0 
-529 -530 -532 0 
-529 530 532 0 
-530 531 0 
-532 526 0 
-532 527 0 
-533 -437 534 0 
-533 -534 437 0 
-534 -535 -537 0 
-534 535 537 0 
-535 536 0 
-537 531 0 
-537 532 0 
-538 -439 539 0 
-538 -539 439 0 
-539 -540 -542 0 
-539 540 542 0 
-540 541 0 
-542 536 0 
-542 537 0 
-543 -441 544 0 
-543 -544 441 0 
-41 -42 43 0 
-41 42 66 0 
-544 -545 -547 0 
-544 545 547 0 
-545 546 0 
-547 541 0 
-547 542 0 
-548 -443 549 0 
-548 -549 443 0 
-549 -550 -552 0 
-549 550 552 0 
-550 551 0 
-552 546 0 
-552 547 0 
-553 -445 554 0 
-553 -554 445 0 
-42 39 0 
-554 -555 -557 0 
-554 555 557 0 
-555 556 0 
-557 551 0 
-557 552 0 
-558 559 0 
-558 588 0 
-559 560 0 
-559 587 0 
-560 561 0 
-560 586 0 
-561 562 0 
-561 585 0 
-562 563 0 
-562 584 0 
-563 564 0 
-563 583 0 
-564 565 0 
-564 582 0 
-565 566 0 
-565 581 0 
-566 567 0 
-566 580 0 
-567 568 0 
-567 579 0 
-568 569 0 
-568 578 0 
-569 570 0 
-569 577 0 
-570 571 0 
-570 576 0 
-571 572 0 
-571 575 0 
-572 573 0 
-572 574 0 
-573 -415 482 0 
-573 -482 415 0 
-43 44 0 
-43 64 0 
-574 -417 486 0 
-574 -486 417 0 
-575 -419 491 0 
-575 -491 419 0 
-576 -421 496 0 
-576 -496 421 0 
-577 -423 501 0 
-577 -501 423 0 
-578 -425 506 0 
-578 -506 425 0 
-579 -427 511 0 
-579 -511 427 0 
-580 -429 516 0 
-580 -516 429 0 
-581 -431 521 0 
-581 -521 431 0 
-582 -433 526 0 
-582 -526 433 0 
-583 -435 531 0 
-583 -531 435 0 
-44 45 0 
-44 62 0 
-584 -437 536 0 
-584 -536 437 0 
-585 -439 541 0 
-585 -541 439 0 
-586 -441 546 0 
-586 -546 441 0 
-587 -443 551 0 
-587 -551 443 0 
-588 -445 556 0 
-588 -556 445 0 
-32 589 0 
32 609 0 
-589 -42 590 0 
-589 42 601 0 
-590 591 0 
-590 599 0 
-591 592 0 
-591 597 0 
-592 593 0 
-592 595 0 
-45 46 0 
-45 60 0 
-593 -594 0 
-595 -596 0 
-597 -598 0 
-599 -600 0 
-601 -67 602 0 
-601 67 609 0 
-602 -448 603 0 
-602 448 616 0 
-46 47 0 
-46 58 0 
-603 -604 605 0 
-603 604 609 0 
-604 392 0 
-605 599 0 
-605 606 0 
-606 597 0 
-606 607 0 
-607 595 0 
-607 608 0 
-608 594 0 
-609 610 0 
-609 615 0 
-610 611 0 
-610 614 0 
-611 612 0 
-611 613 0 
-612 -452 594 0 
-612 -594 452 0 
-47 48 0 
-47 56 0 
-613 -454 596 0 
-613 -596 454 0 
-614 -456 598 0 
-614 -598 456 0 
-615 -458 600 0 
-615 -600 458 0 
-616 -460 617 0 
-616 460 621 0 
-617 599 0 
-617 618 0 
-618 597 0 
-618 619 0 
-619 593 0 
-619 620 0 
-620 596 0 
-621 -622 626 0 
-621 622 590 0 
-622 457 0 
-622 623 0 
-48 49 0 
-48 54 0 
-623 455 0 
-623 624 0 
-624 451 0 
-624 625 0 
-625 454 0 
-626 -627 590 0 
-626 627 605 0 
-627 628 0 
-627 657 0 
-628 629 0 
-628 656 0 
-629 630 0 
-629 655 0 
-630 631 0 
-630 654 0 
-631 632 0 
-631 653 0 
-632 633 0 
-632 652 0 
-49 50 0 
-49 52 0 
-633 634 0 
-633 651 0 
-634 635 0 
-634 650 0 
-635 636 0 
-635 649 0 
-636 637 0 
-636 648 0 
-637 638 0 
-637 647 0 
-638 639 0 
-638 646 0 
-639 640 0 
-639 645 0 
-640 641 0 
-640 644 0 
-641 642 0 
-641 643 0 
-642 482 0 
-50 51 0 
-643 486 0 
-644 491 0 
-645 496 0 
-646 501 0 
-647 506 0 
-648 511 0 
-649 516 0 
-650 521 0 
-651 526 0 
-652 531 0 
-653 536 0 
-654 541 0 
-655 546 0 
-656 551 0 
-657 556 0 
-32 658 0 
32 668 0 
-658 -42 659 0 
-658 42 661 0 
-659 660 0 
-52 53 0 
-661 -67 662 0 
-661 67 668 0 
-662 -448 659 0 
-662 448 663 0 
-663 -460 664 0 
-663 460 668 0 
-664 665 0 
-665 666 0 
-666 667 0 
-667 -660 0 
-668 -660 669 0 
-668 -669 660 0 
-32 670 0 
32 677 0 
-670 -42 671 0 
-670 42 673 0 
-671 672 0 
-673 -67 674 0 
-673 67 677 0 
-674 -70 671 0 
-674 70 675 0 
-675 -82 671 0 
-675 82 676 0 
-676 -110 677 0 
-676 110 679 0 
-677 -672 678 0 
-677 -678 672 0 
-54 55 0 
-679 -115 677 0 
-679 115 680 0 
-680 -119 677 0 
-680 119 681 0 
-681 -220 677 0 
-681 220 682 0 
-682 -243 677 0 
-682 243 683 0 
-683 -70 677 0 
-683 70 684 0 
-684 -256 677 0 
-684 256 685 0 
-685 -260 677 0 
-685 260 686 0 
-686 -263 687 0 
-686 263 691 0 
-687 688 0 
-688 689 0 
-689 690 0 
-690 -672 0 
-691 -265 692 0 
-691 265 677 0 
-692 -267 671 0 
-692 267 677 0 
-32 693 0 
32 702 0 
-693 -42 694 0 
-693 42 699 0 
-694 695 0 
-56 57 0 
-695 696 0 
-696 697 0 
-697 -698 0 
-699 -67 700 0 
-699 67 702 0 
-700 -70 694 0 
-700 70 701 0 
-701 -82 702 0 
-701 82 704 0 
-702 -698 703 0 
-702 -703 698 0 
-704 -110 702 0 
-704 110 705 0 
-705 -115 702 0 
-705 115 706 0 
-706 -119 702 0 
-706 119 707 0 
-707 -220 708 0 
-707 220 710 0 
-708 -223 709 0 
-708 223 702 0 
-709 698 0 
-710 -243 694 0 
-710 243 702 0 
-58 59 0 
-60 61 0 
-62 63 0 
-64 65 0 
-66 -67 69 0 
-66 67 86 0 
-67 33 0 
-67 68 0 
-68 35 0 
-69 -70 43 0 
-69 70 81 0 
-70 71 0 
-70 79 0 
-71 72 0 
-71 77 0 
-72 73 0 
-72 75 0 
-73 -74 0 
-75 -76 0 
-77 -78 0 
-79 -80 0 
81 -82 -86 0 
81 -86 -109 0 
81 82 -109 0 
82 -83 -79 0 
83 -84 -77 0 
84 -85 -75 0 
85 -74 0 
86 -87 -107 0 
87 -88 -105 0 
88 -89 -103 0 
89 -90 -101 0 
90 -91 -99 0 
91 -92 -97 0 
92 -93 -95 0 
93 -51 -94 0 
93 51 94 0 
95 -53 -96 0 
95 53 96 0 
97 -55 -98 0 
97 55 98 0 
99 -57 -100 0 
99 57 100 0 
101 -59 -102 0 
101 59 102 0 
103 -61 -104 0 
103 61 104 0 
105 -63 -106 0 
105 63 106 0 
107 -65 -108 0 
107 65 108 0 
109 -86 -114 0 
109 -110 -86 0 
109 110 -114 0 
110 -111 -79 0 
111 -112 -77 0 
112 -73 -113 0 
113 -76 0 
114 -86 -118 0 
114 -115 -86 0 
114 115 -118 0 
115 -116 -79 0 
116 -117 -77 0 
117 -85 -113 0 
118 -119 -122 0 
118 -122 -86 0 
118 119 -86 0 
119 -120 -79 0 
120 -72 -121 0 
121 -78 0 
122 -123 -157 0 
122 -157 -86 0 
122 123 -86 0 
123 -124 -147 0 
124 -125 -137 0 
125 -126 -131 0 
126 127 0 
127 -128 0 
128 -129 130 0 
128 -130 129 0 
2 -3 0 
131 132 0 
132 -133 136 0 
132 -136 133 0 
133 -134 135 0 
133 -135 134 0 
136 -129 -130 0 
137 138 0 
138 -139 142 0 
138 -142 139 0 
139 -140 141 0 
139 -141 140 0 
3 -4 5 0 
3 -5 4 0 
142 -143 0 
142 -146 0 
143 -144 0 
143 -145 0 
144 -134 -135 0 
145 -135 -136 0 
146 -134 -136 0 
147 148 0 
148 -149 152 0 
148 -152 149 0 
149 -150 151 0 
149 -151 150 0 
152 -153 0 
152 -156 0 
153 -154 0 
153 -155 0 
154 -140 -141 0 
155 -141 -142 0 
156 -140 -142 0 
157 -158 -178 0 
158 -159 -176 0 
159 -160 -174 0 
160 -161 -172 0 
161 -162 -170 0 
162 -163 -168 0 
163 -164 -166 0 
164 -51 -165 0 
164 51 165 0 
166 -53 -167 0 
166 53 167 0 
168 -55 -169 0 
168 55 169 0 
170 -57 -171 0 
170 57 171 0 
172 -59 -173 0 
172 59 173 0 
174 -61 -175 0 
174 61 175 0 
176 -63 -177 0 
176 63 177 0 
178 -65 -179 0 
178 65 179 0 
180 -181 -192 0 
180 -42 -181 0 
180 42 -192 0 
181 -182 -190 0 
182 -183 -188 0 
183 -184 -186 0 
184 185 0 
186 187 0 
188 189 0 
190 191 0 
192 -193 -272 0 
192 -67 -193 0 
192 67 -272 0 
193 -194 -199 0 
193 -70 -194 0 
193 70 -199 0 
194 -123 -195 0 
194 -195 -181 0 
194 123 -181 0 
195 -196 -190 0 
196 -197 -188 0 
197 -198 -186 0 
198 -185 0 
199 -82 -200 0 
199 -200 -205 0 
199 82 -205 0 
7 -8 11 0 
7 -11 8 0 
200 -123 -201 0 
200 -201 -181 0 
200 123 -181 0 
201 -202 -190 0 
202 -203 -188 0 
203 -184 -204 0 
204 -187 0 
205 -110 -206 0 
205 -206 -210 0 
205 110 -210 0 
206 -123 -207 0 
206 -207 -181 0 
206 123 -181 0 
207 -208 -190 0 
208 -209 -188 0 
209 -198 -204 0 
8 -9 10 0 
8 -10 9 0 
210 -115 -211 0 
210 -211 -215 0 
210 115 -215 0 
211 -123 -212 0 
211 -212 -181 0 
211 123 -181 0 
212 -213 -190 0 
213 -183 -214 0 
214 -189 0 
215 -119 -216 0 
215 -216 -219 0 
215 119 -219 0 
216 -123 -217 0 
216 -217 -181 0 
216 123 -181 0 
217 -218 -190 0 
218 -197 -214 0 
219 -220 -222 0 
219 -222 -242 0 
219 220 -242 0 
220 -221 -79 0 
221 -84 -121 0 
222 -223 -238 0 
222 -238 -240 0 
222 223 -240 0 
223 -224 -237 0 
224 -225 -236 0 
225 -226 -235 0 
226 -227 -234 0 
227 -228 -233 0 
228 -229 -232 0 
229 -230 -231 0 
230 94 0 
231 96 0 
232 98 0 
233 100 0 
234 102 0 
235 104 0 
236 106 0 
237 108 0 
238 -239 -190 0 
239 -203 -214 0 
11 -4 -5 0 
240 -208 -241 0 
241 -191 0 
242 -243 -245 0 
242 -245 -253 0 
242 243 -253 0 
243 -244 -79 0 
244 -112 -121 0 
245 -181 -251 0 
245 -246 -181 0 
245 246 -251 0 
246 -247 0 
247 -248 0 
248 -249 0 
249 250 0 
251 -252 -190 0 
252 -209 -214 0 
253 -254 -255 0 
253 -70 -254 0 
253 70 -255 0 
254 -196 -241 0 
255 -256 -258 0 
255 -258 -259 0 
255 256 -259 0 
256 -257 -79 0 
257 -117 -121 0 
258 -202 -241 0 
259 -258 -262 0 
259 -260 -258 0 
259 260 -262 0 
260 -83 -261 0 
261 -80 0 
262 -240 -264 0 
262 -263 -240 0 
262 263 -264 0 
263 -111 -261 0 
264 -265 -266 0 
264 -266 -181 0 
264 265 -181 0 
265 -116 -261 0 
266 -181 -272 0 
266 -267 -181 0 
266 267 -272 0 
267 -268 -147 0 
268 -269 -137 0 
13 -14 17 0 
13 -17 14 0 
269 -270 -271 0 
270 -127 0 
271 -132 0 
272 -273 -278 0 
273 -274 -277 0 
274 -275 -276 0 
275 -185 -74 0 
275 185 74 0 
276 -187 -76 0 
276 187 76 0 
277 -189 -78 0 
277 189 78 0 
278 -191 -80 0 
278 191 80 0 
14 -15 16 0 
14 -16 15 0 
279 -280 -303 0 
279 -42 -280 0 
279 42 -303 0 
280 -281 -301 0 
281 -282 -299 0 
282 -283 -297 0 
283 -284 -295 0 
284 -285 -293 0 
285 -286 -291 0 
286 -287 -289 0 
287 -288 0 
289 -290 0 
291 -292 0 
293 -294 0 
295 -296 0 
297 -298 0 
299 -300 0 
301 -302 0 
303 -304 -306 0 
303 -67 -304 0 
303 67 -306 0 
304 -280 -305 0 
304 -70 -280 0 
304 70 -305 0 
305 -82 -306 0 
305 -306 -329 0 
305 82 -329 0 
306 -307 -327 0 
307 -308 -325 0 
17 -18 0 
17 -21 0 
308 -309 -323 0 
309 -310 -321 0 
310 -311 -319 0 
311 -312 -317 0 
312 -313 -315 0 
313 -288 -314 0 
313 288 314 0 
315 -290 -316 0 
315 290 316 0 
317 -292 -318 0 
317 292 318 0 
18 -19 0 
18 -20 0 
319 -294 -320 0 
319 294 320 0 
321 -296 -322 0 
321 296 322 0 
323 -298 -324 0 
323 298 324 0 
325 -300 -326 0 
325 300 326 0 
327 -302 -328 0 
327 302 328 0 
19 -9 -10 0 
329 -110 -306 0 
329 -306 -330 0 
329 110 -330 0 
330 -115 -306 0 
330 -306 -331 0 
330 115 -331 0 
331 -119 -332 0 
331 -332 -306 0 
331 119 -306 0 
332 -123 -333 0 
332 -333 -306 0 
332 123 -306 0 
333 -334 -354 0 
334 -335 -352 0 
335 -336 -350 0 
336 -337 -348 0 
337 -338 -346 0 
20 -10 -11 0 
338 -339 -344 0 
339 -340 -342 0 
340 -288 -341 0 
340 288 341 0 
342 -290 -343 0 
342 290 343 0 
344 -292 -345 0 
344 292 345 0 
346 -294 -347 0 
346 294 347 0 
21 -9 -11 0 
348 -296 -349 0 
348 296 349 0 
350 -298 -351 0 
350 298 351 0 
352 -300 -353 0 
352 300 353 0 
354 -302 -355 0 
354 302 355 0 
360 -361 -366 0 
360 -42 -361 0 
360 42 -366 0 
361 -362 0 
362 -363 0 
363 -364 0 
364 365 0 
366 -367 -370 0 
366 -67 -367 0 
366 67 -370 0 
367 -361 -368 0 
367 -70 -361 0 
367 70 -368 0 
23 -24 27 0 
23 -27 24 0 
368 -82 -361 0 
368 -361 -369 0 
368 82 -369 0 
369 -110 -370 0 
369 -370 -372 0 
369 110 -372 0 
370 -365 -371 0 
370 365 371 0 
372 -115 -370 0 
372 -370 -373 0 
372 115 -373 0 
373 -119 -370 0 
373 -370 -374 0 
373 119 -374 0 
374 -220 -370 0 
374 -370 -375 0 
374 220 -375 0 
375 -243 -370 0 
375 -370 -376 0 
375 243 -376 0 
376 -377 -378 0 
376 -70 -377 0 
376 70 -378 0 
377 -365 0 
24 -25 26 0 
24 -26 25 0 
378 -256 -361 0 
378 -361 -379 0 
378 256 -379 0 
379 -260 -361 0 
379 -361 -370 0 
379 260 -370 0 
382 -383 -387 0 
382 -42 -383 0 
382 42 -387 0 
383 -384 0 
384 -385 0 
385 -386 0 
386 381 0 
387 -388 -391 0 
387 -67 -388 0 
387 67 -391 0 
388 -383 -389 0 
388 -70 -383 0 
388 70 -389 0 
389 -82 -383 0 
389 -383 -390 0 
389 82 -390 0 
390 -110 -391 0 
390 -391 -393 0 
390 110 -393 0 
391 -381 -392 0 
391 381 392 0 
393 -115 -391 0 
393 -391 -394 0 
393 115 -394 0 
394 -119 -391 0 
394 -391 -395 0 
394 119 -395 0 
395 -220 -396 0 
395 -396 -391 0 
395 220 -391 0 
396 -223 -397 0 
396 -397 -383 0 
396 223 -383 0 
397 -381 0 
27 -28 0 
27 -31 0 
398 -399 -446 0 
398 -42 -399 0 
398 42 -446 0 
399 -400 -444 0 
400 -401 -442 0 
401 -402 -440 0 
402 -403 -438 0 
403 -404 -436 0 
28 -29 0 
28 -30 0 
404 -405 -434 0 
405 -406 -432 0 
406 -407 -430 0 
407 -408 -428 0 
408 -409 -426 0 
409 -410 -424 0 
410 -411 -422 0 
411 -412 -420 0 
412 -413 -418 0 
413 -414 -416 0 
29 -15 -16 0 
414 415 0 
416 417 0 
418 419 0 
420 421 0 
422 423 0 
30 -16 -17 0 
424 425 0 
426 427 0 
428 429 0 
430 431 0 
432 433 0 
31 -15 -17 0 
434 435 0 
436 437 0 
438 439 0 
440 441 0 
442 443 0 
444 445 0 
446 -447 -558 0 
446 -67 -447 0 
446 67 -558 0 
447 -399 -459 0 
447 -448 -399 0 
447 448 -459 0 
448 -449 -457 0 
449 -450 -455 0 
450 -451 -453 0 
451 452 0 
453 454 0 
32 -33 0 
32 -37 0 
455 456 0 
457 458 0 
459 -460 -464 0 
459 -464 -558 0 
459 460 -558 0 
460 -461 -457 0 
461 -462 -455 0 
462 -463 -453 0 
463 -452 0 
33 34 0 
464 -465 -553 0 
465 -466 -548 0 
466 -467 -543 0 
467 -468 -538 0 
468 -469 -533 0 
469 -470 -528 0 
470 -471 -523 0 
471 -472 -518 0 
472 -473 -513 0 
473 -474 -508 0 
34 -35 -36 0 
34 35 36 0 
474 -475 -503 0 
475 -476 -498 0 
476 -477 -493 0 
477 -478 -488 0 
478 -479 -483 0 
479 -415 -480 0 
479 415 480 0 
480 -481 0 
481 482 0 
483 -417 -484 0 
483 417 484 0 
484 -485 487 0 
484 -487 485 0 
485 -486 0 
487 -482 0 
488 -419 -489 0 
488 419 489 0 
489 -490 492 0 
489 -492 490 0 
490 -491 0 
492 -486 -487 0 
493 -421 -494 0 
493 421 494 0 
494 -495 497 0 
494 -497 495 0 
495 -496 0 
497 -491 -492 0 
498 -423 -499 0 
498 423 499 0 
499 -500 502 0 
499 -502 500 0 
500 -501 0 
502 -496 -497 0 
503 -425 -504 0 
503 425 504 0 
37 38 0 
504 -505 507 0 
504 -507 505 0 
505 -506 0 
507 -501 -502 0 
508 -427 -509 0 
508 427 509 0 
509 -510 512 0 
509 -512 510 0 
510 -511 0 
512 -506 -507 0 
513 -429 -514 0 
513 429 514 0 
38 -39 -40 0 
38 39 40 0 
514 -515 517 0 
514 -517 515 0 
515 -516 0 
517 -511 -512 0 
518 -431 -519 0 
518 431 519 0 
519 -520 522 0 
519 -522 520 0 
520 -521 0 
522 -516 -517 0 
523 -433 -524 0 
523 433 524 0 
524 -525 527 0 
524 -527 525 0 
525 -526 0 
527 -521 -522 0 
528 -435 -529 0 
528 435 529 0 
529 -530 532 0 
529 -532 530 0 
530 -531 0 
532 -526 -527 0 
533 -437 -534 0 
533 437 534 0 
534 -535 537 0 
534 -537 535 0 
535 -536 0 
537 -531 -532 0 
538 -439 -539 0 
538 439 539 0 
539 -540 542 0 
539 -542 540 0 
540 -541 0 
542 -536 -537 0 
543 -441 -544 0 
543 441 544 0 
41 -42 -43 0 
41 -43 -66 0 
41 42 -66 0 
544 -545 547 0 
544 -547 545 0 
545 -546 0 
547 -541 -542 0 
548 -443 -549 0 
548 443 549 0 
549 -550 552 0 
549 -552 550 0 
550 -551 0 
552 -546 -547 0 
553 -445 -554 0 
553 445 554 0 
42 -39 0 
554 -555 557 0 
554 -557 555 0 
555 -556 0 
557 -551 -552 0 
558 -559 -588 0 
559 -560 -587 0 
560 -561 -586 0 
561 -562 -585 0 
562 -563 -584 0 
563 -564 -583 0 
564 -565 -582 0 
565 -566 -581 0 
566 -567 -580 0 
567 -568 -579 0 
568 -569 -578 0 
569 -570 -577 0 
570 -571 -576 0 
571 -572 -575 0 
572 -573 -574 0 
573 -415 -482 0 
573 415 482 0 
43 -44 -64 0 
574 -417 -486 0 
574 417 486 0 
575 -419 -491 0 
575 419 491 0 
576 -421 -496 0 
576 421 496 0 
577 -423 -501 0 
577 423 501 0 
578 -425 -506 0 
578 425 506 0 
579 -427 -511 0 
579 427 511 0 
580 -429 -516 0 
580 429 516 0 
581 -431 -521 0 
581 431 521 0 
582 -433 -526 0 
582 433 526 0 
583 -435 -531 0 
583 435 531 0 
44 -45 -62 0 
584 -437 -536 0 
584 437 536 0 
585 -439 -541 0 
585 439 541 0 
586 -441 -546 0 
586 441 546 0 
587 -443 -551 0 
587 443 551 0 
588 -445 -556 0 
588 445 556 0 
589 -42 -590 0 
589 -590 -601 0 
589 42 -601 0 
590 -591 -599 0 
591 -592 -597 0 
592 -593 -595 0 
45 -46 -60 0 
593 594 0 
595 596 0 
597 598 0 
599 600 0 
601 -602 -609 0 
601 -67 -602 0 
601 67 -609 0 
602 -448 -603 0 
602 -603 -616 0 
602 448 -616 0 
46 -47 -58 0 
603 -604 -605 0 
603 -605 -609 0 
603 604 -609 0 
604 -392 0 
605 -606 -599 0 
606 -607 -597 0 
607 -608 -595 0 
608 -594 0 
609 -610 -615 0 
610 -611 -614 0 
611 -612 -613 0 
612 -594 -452 0 
612 594 452 0 
47 -48 -56 0 
613 -596 -454 0 
613 596 454 0 
614 -598 -456 0 
614 598 456 0 
615 -600 -458 0 
615 600 458 0 
616 -460 -617 0 
616 -617 -621 0 
616 460 -621 0 
617 -618 -599 0 
618 -619 -597 0 
619 -593 -620 0 
620 -596 0 
621 -622 -626 0 
621 -626 -590 0 
621 622 -590 0 
622 -623 -457 0 
48 -49 -54 0 
623 -624 -455 0 
624 -451 -625 0 
625 -454 0 
626 -590 -605 0 
626 -627 -590 0 
626 627 -605 0 
627 -628 -657 0 
628 -629 -656 0 
629 -630 -655 0 
630 -631 -654 0 
631 -632 -653 0 
632 -633 -652 0 
49 -50 -52 0 
633 -634 -651 0 
634 -635 -650 0 
635 -636 -649 0 
636 -637 -648 0 
637 -638 -647 0 
638 -639 -646 0 
639 -640 -645 0 
640 -641 -644 0 
641 -642 -643 0 
642 -482 0 
50 -51 0 
643 -486 0 
644 -491 0 
645 -496 0 
646 -501 0 
647 -506 0 
648 -511 0 
649 -516 0 
650 -521 0 
651 -526 0 
652 -531 0 
653 -536 0 
654 -541 0 
655 -546 0 
656 -551 0 
657 -556 0 
658 -42 -659 0 
658 -659 -661 0 
658 42 -661 0 
659 -660 0 
52 -53 0 
661 -662 -668 0 
661 -67 -662 0 
661 67 -668 0 
662 -448 -659 0 
662 -659 -663 0 
662 448 -663 0 
663 -460 -664 0 
663 -664 -668 0 
663 460 -668 0 
664 -665 0 
665 -666 0 
666 -667 0 
667 660 0 
668 -660 -669 0 
668 660 669 0 
670 -42 -671 0 
670 -671 -673 0 
670 42 -673 0 
671 -672 0 
673 -674 -677 0 
673 -67 -674 0 
673 67 -677 0 
674 -671 -675 0 
674 -70 -671 0 
674 70 -675 0 
675 -82 -671 0 
675 -671 -676 0 
675 82 -676 0 
676 -110 -677 0 
676 -677 -679 0 
676 110 -679 0 
677 -672 -678 0 
677 672 678 0 
54 -55 0 
679 -115 -677 0 
679 -677 -680 0 
679 115 -680 0 
680 -119 -677 0 
680 -677 -681 0 
680 119 -681 0 
681 -220 -677 0 
681 -677 -682 0 
681 220 -682 0 
682 -243 -677 0 
682 -677 -683 0 
682 243 -683 0 
683 -677 -684 0 
683 -70 -677 0 
683 70 -684 0 
684 -256 -677 0 
684 -677 -685 0 
684 256 -685 0 
685 -260 -677 0 
685 -677 -686 0 
685 260 -686 0 
686 -263 -687 0 
686 -687 -691 0 
686 263 -691 0 
687 -688 0 
688 -689 0 
689 -690 0 
690 672 0 
691 -265 -692 0 
691 -692 -677 0 
691 265 -677 0 
692 -267 -671 0 
692 -671 -677 0 
692 267 -677 0 
693 -42 -694 0 
693 -694 -699 0 
693 42 -699 0 
694 -695 0 
56 -57 0 
695 -696 0 
696 -697 0 
697 698 0 
699 -700 -702 0 
699 -67 -700 0 
699 67 -702 0 
700 -694 -701 0 
700 -70 -694 0 
700 70 -701 0 
701 -82 -702 0 
701 -702 -704 0 
701 82 -704 0 
702 -698 -703 0 
702 698 703 0 
704 -110 -702 0 
704 -702 -705 0 
704 110 -705 0 
705 -115 -702 0 
705 -702 -706 0 
705 115 -706 0 
706 -119 -702 0 
706 -702 -707 0 
706 119 -707 0 
707 -220 -708 0 
707 -708 -710 0 
707 220 -710 0 
708 -223 -709 0 
708 -709 -702 0 
708 223 -702 0 
709 -698 0 
710 -243 -694 0 
710 -694 -702 0 
710 243 -702 0 
58 -59 0 
60 -61 0 
62 -63 0 
64 -65 0 
66 -67 -69 0 
66 -69 -86 0 
66 67 -86 0 
67 -33 -68 0 
68 -35 0 
69 -43 -81 0 
69 -70 -43 0 
69 70 -81 0 
70 -71 -79 0 
71 -72 -77 0 
72 -73 -75 0 
73 74 0 
75 76 0 
77 78 0 
79 80 0 
